102550
60,81,72,51,7,56,17,77,9,58,74,32,40,82,75,11,33,27,16,38,2,30,35,28,79,6,61,83,8,53,59,68,44,22,5,21,54,46,71,66,20,67,76,36,26,70,14,62,80,45,73,64,29,10,1,13,37,18,48,19,24,31,65,50,4,63,39,52,41,78,69,15,25,42,55,23,12,3,43,57,34,49,47
